NAME: tsp20-40
TYPE: TSP
DIMENSION: 20
EDGE_WEIGHT_TYPE: EUC_2D
NODE_COORD_SECTION
0 48 52
1 40 9
2 95 61
3 73 21
4 2 54
5 95 10
6 3 5
7 21 48
8 60 47
9 22 16
10 41 29
11 15 17
12 53 26
13 9 57
14 29 59
15 32 9
16 0 4
17 72 25
18 30 81
19 34 87
EOF